40
68
4
8
17
1
72
0 24
0 28
0 34
1 13
1 15
1 22
2 8
2 16
2 18
2 25
2 27
3 9
3 16
3 19
4 15
4 20
4 31
4 38
4 39
5 8
6 20
6 31
7 20
7 25
7 27
7 31
7 36
7 38
7 39
9 10
9 26
10 15
10 16
10 25
10 38
11 23
11 37
11 39
12 21
12 27
12 28
13 24
13 30
13 34
14 17
14 18
14 24
16 24
17 29
17 34
17 36
18 33
19 27
19 39
20 36
21 28
21 39
22 38
25 26
26 34
26 38
27 30
28 29
30 39
31 33
32 33
36 38
37 38
24 28 33 19 27 8 2 22 9 37
10 1 18 14 17 15 31 16 23 34
35 12 29 20 39 7 26 4 25 32
6 38 13 5 21 3 36 11 0 30
